c
c Generated WCNF file
c
p wcnf 466 2236 66724
66724 31 0
66724 -32 1 0
66724 -32 2 0
66724 32 -1 -2 0
66724 -33 1 0
66724 -33 3 0
66724 33 -1 -3 0
66724 -34 1 0
66724 -34 4 0
66724 34 -1 -4 0
66724 -35 1 0
66724 -35 5 0
66724 35 -1 -5 0
66724 -36 1 0
66724 -36 6 0
66724 36 -1 -6 0
66724 -37 1 0
66724 -37 7 0
66724 37 -1 -7 0
66724 -38 1 0
66724 -38 8 0
66724 38 -1 -8 0
66724 -39 1 0
66724 -39 9 0
66724 39 -1 -9 0
66724 -40 1 0
66724 -40 10 0
66724 40 -1 -10 0
66724 -41 1 0
66724 -41 11 0
66724 41 -1 -11 0
66724 -42 1 0
66724 -42 12 0
66724 42 -1 -12 0
66724 -43 1 0
66724 -43 13 0
66724 43 -1 -13 0
66724 -44 1 0
66724 -44 14 0
66724 44 -1 -14 0
66724 -45 1 0
66724 -45 15 0
66724 45 -1 -15 0
66724 -46 1 0
66724 -46 16 0
66724 46 -1 -16 0
66724 -47 1 0
66724 -47 17 0
66724 47 -1 -17 0
66724 -48 1 0
66724 -48 18 0
66724 48 -1 -18 0
66724 -49 1 0
66724 -49 19 0
66724 49 -1 -19 0
66724 -50 1 0
66724 -50 20 0
66724 50 -1 -20 0
66724 -51 1 0
66724 -51 21 0
66724 51 -1 -21 0
66724 -52 1 0
66724 -52 22 0
66724 52 -1 -22 0
66724 -53 1 0
66724 -53 23 0
66724 53 -1 -23 0
66724 -54 1 0
66724 -54 24 0
66724 54 -1 -24 0
66724 -55 1 0
66724 -55 25 0
66724 55 -1 -25 0
66724 -56 1 0
66724 -56 26 0
66724 56 -1 -26 0
66724 -57 1 0
66724 -57 27 0
66724 57 -1 -27 0
66724 -58 1 0
66724 -58 28 0
66724 58 -1 -28 0
66724 -59 1 0
66724 -59 29 0
66724 59 -1 -29 0
66724 -60 1 0
66724 -60 30 0
66724 60 -1 -30 0
66724 -61 2 0
66724 -61 3 0
66724 61 -2 -3 0
66724 -62 2 0
66724 -62 4 0
66724 62 -2 -4 0
66724 -63 2 0
66724 -63 5 0
66724 63 -2 -5 0
66724 -64 2 0
66724 -64 6 0
66724 64 -2 -6 0
66724 -65 2 0
66724 -65 7 0
66724 65 -2 -7 0
66724 -66 2 0
66724 -66 8 0
66724 66 -2 -8 0
66724 -67 2 0
66724 -67 9 0
66724 67 -2 -9 0
66724 -68 2 0
66724 -68 10 0
66724 68 -2 -10 0
66724 -69 2 0
66724 -69 11 0
66724 69 -2 -11 0
66724 -70 2 0
66724 -70 12 0
66724 70 -2 -12 0
66724 -71 2 0
66724 -71 13 0
66724 71 -2 -13 0
66724 -72 2 0
66724 -72 14 0
66724 72 -2 -14 0
66724 -73 2 0
66724 -73 15 0
66724 73 -2 -15 0
66724 -74 2 0
66724 -74 16 0
66724 74 -2 -16 0
66724 -75 2 0
66724 -75 17 0
66724 75 -2 -17 0
66724 -76 2 0
66724 -76 18 0
66724 76 -2 -18 0
66724 -77 2 0
66724 -77 19 0
66724 77 -2 -19 0
66724 -78 2 0
66724 -78 20 0
66724 78 -2 -20 0
66724 -79 2 0
66724 -79 21 0
66724 79 -2 -21 0
66724 -80 2 0
66724 -80 22 0
66724 80 -2 -22 0
66724 -81 2 0
66724 -81 23 0
66724 81 -2 -23 0
66724 -82 2 0
66724 -82 24 0
66724 82 -2 -24 0
66724 -83 2 0
66724 -83 25 0
66724 83 -2 -25 0
66724 -84 2 0
66724 -84 26 0
66724 84 -2 -26 0
66724 -85 2 0
66724 -85 27 0
66724 85 -2 -27 0
66724 -86 2 0
66724 -86 28 0
66724 86 -2 -28 0
66724 -87 2 0
66724 -87 29 0
66724 87 -2 -29 0
66724 -88 2 0
66724 -88 30 0
66724 88 -2 -30 0
66724 -89 3 0
66724 -89 4 0
66724 89 -3 -4 0
66724 -90 3 0
66724 -90 5 0
66724 90 -3 -5 0
66724 -91 3 0
66724 -91 6 0
66724 91 -3 -6 0
66724 -92 3 0
66724 -92 7 0
66724 92 -3 -7 0
66724 -93 3 0
66724 -93 8 0
66724 93 -3 -8 0
66724 -94 3 0
66724 -94 9 0
66724 94 -3 -9 0
66724 -95 3 0
66724 -95 10 0
66724 95 -3 -10 0
66724 -96 3 0
66724 -96 11 0
66724 96 -3 -11 0
66724 -97 3 0
66724 -97 12 0
66724 97 -3 -12 0
66724 -98 3 0
66724 -98 13 0
66724 98 -3 -13 0
66724 -99 3 0
66724 -99 14 0
66724 99 -3 -14 0
66724 -100 3 0
66724 -100 15 0
66724 100 -3 -15 0
66724 -101 3 0
66724 -101 16 0
66724 101 -3 -16 0
66724 -102 3 0
66724 -102 17 0
66724 102 -3 -17 0
66724 -103 3 0
66724 -103 18 0
66724 103 -3 -18 0
66724 -104 3 0
66724 -104 19 0
66724 104 -3 -19 0
66724 -105 3 0
66724 -105 20 0
66724 105 -3 -20 0
66724 -106 3 0
66724 -106 21 0
66724 106 -3 -21 0
66724 -107 3 0
66724 -107 22 0
66724 107 -3 -22 0
66724 -108 3 0
66724 -108 23 0
66724 108 -3 -23 0
66724 -109 3 0
66724 -109 24 0
66724 109 -3 -24 0
66724 -110 3 0
66724 -110 25 0
66724 110 -3 -25 0
66724 -111 3 0
66724 -111 26 0
66724 111 -3 -26 0
66724 -112 3 0
66724 -112 27 0
66724 112 -3 -27 0
66724 -113 3 0
66724 -113 28 0
66724 113 -3 -28 0
66724 -114 3 0
66724 -114 29 0
66724 114 -3 -29 0
66724 -115 3 0
66724 -115 30 0
66724 115 -3 -30 0
66724 -116 4 0
66724 -116 5 0
66724 116 -4 -5 0
66724 -117 4 0
66724 -117 6 0
66724 117 -4 -6 0
66724 -118 4 0
66724 -118 7 0
66724 118 -4 -7 0
66724 -119 4 0
66724 -119 8 0
66724 119 -4 -8 0
66724 -120 4 0
66724 -120 9 0
66724 120 -4 -9 0
66724 -121 4 0
66724 -121 10 0
66724 121 -4 -10 0
66724 -122 4 0
66724 -122 11 0
66724 122 -4 -11 0
66724 -123 4 0
66724 -123 12 0
66724 123 -4 -12 0
66724 -124 4 0
66724 -124 13 0
66724 124 -4 -13 0
66724 -125 4 0
66724 -125 14 0
66724 125 -4 -14 0
66724 -126 4 0
66724 -126 15 0
66724 126 -4 -15 0
66724 -127 4 0
66724 -127 16 0
66724 127 -4 -16 0
66724 -128 4 0
66724 -128 17 0
66724 128 -4 -17 0
66724 -129 4 0
66724 -129 18 0
66724 129 -4 -18 0
66724 -130 4 0
66724 -130 19 0
66724 130 -4 -19 0
66724 -131 4 0
66724 -131 20 0
66724 131 -4 -20 0
66724 -132 4 0
66724 -132 21 0
66724 132 -4 -21 0
66724 -133 4 0
66724 -133 22 0
66724 133 -4 -22 0
66724 -134 4 0
66724 -134 23 0
66724 134 -4 -23 0
66724 -135 4 0
66724 -135 24 0
66724 135 -4 -24 0
66724 -136 4 0
66724 -136 25 0
66724 136 -4 -25 0
66724 -137 4 0
66724 -137 26 0
66724 137 -4 -26 0
66724 -138 4 0
66724 -138 27 0
66724 138 -4 -27 0
66724 -139 4 0
66724 -139 28 0
66724 139 -4 -28 0
66724 -140 4 0
66724 -140 29 0
66724 140 -4 -29 0
66724 -141 4 0
66724 -141 30 0
66724 141 -4 -30 0
66724 -142 5 0
66724 -142 6 0
66724 142 -5 -6 0
66724 -143 5 0
66724 -143 7 0
66724 143 -5 -7 0
66724 -144 5 0
66724 -144 8 0
66724 144 -5 -8 0
66724 -145 5 0
66724 -145 9 0
66724 145 -5 -9 0
66724 -146 5 0
66724 -146 10 0
66724 146 -5 -10 0
66724 -147 5 0
66724 -147 11 0
66724 147 -5 -11 0
66724 -148 5 0
66724 -148 12 0
66724 148 -5 -12 0
66724 -149 5 0
66724 -149 13 0
66724 149 -5 -13 0
66724 -150 5 0
66724 -150 14 0
66724 150 -5 -14 0
66724 -151 5 0
66724 -151 15 0
66724 151 -5 -15 0
66724 -152 5 0
66724 -152 16 0
66724 152 -5 -16 0
66724 -153 5 0
66724 -153 17 0
66724 153 -5 -17 0
66724 -154 5 0
66724 -154 18 0
66724 154 -5 -18 0
66724 -155 5 0
66724 -155 19 0
66724 155 -5 -19 0
66724 -156 5 0
66724 -156 20 0
66724 156 -5 -20 0
66724 -157 5 0
66724 -157 21 0
66724 157 -5 -21 0
66724 -158 5 0
66724 -158 22 0
66724 158 -5 -22 0
66724 -159 5 0
66724 -159 23 0
66724 159 -5 -23 0
66724 -160 5 0
66724 -160 24 0
66724 160 -5 -24 0
66724 -161 5 0
66724 -161 25 0
66724 161 -5 -25 0
66724 -162 5 0
66724 -162 26 0
66724 162 -5 -26 0
66724 -163 5 0
66724 -163 27 0
66724 163 -5 -27 0
66724 -164 5 0
66724 -164 28 0
66724 164 -5 -28 0
66724 -165 5 0
66724 -165 29 0
66724 165 -5 -29 0
66724 -166 5 0
66724 -166 30 0
66724 166 -5 -30 0
66724 -167 6 0
66724 -167 7 0
66724 167 -6 -7 0
66724 -168 6 0
66724 -168 8 0
66724 168 -6 -8 0
66724 -169 6 0
66724 -169 9 0
66724 169 -6 -9 0
66724 -170 6 0
66724 -170 10 0
66724 170 -6 -10 0
66724 -171 6 0
66724 -171 11 0
66724 171 -6 -11 0
66724 -172 6 0
66724 -172 12 0
66724 172 -6 -12 0
66724 -173 6 0
66724 -173 13 0
66724 173 -6 -13 0
66724 -174 6 0
66724 -174 14 0
66724 174 -6 -14 0
66724 -175 6 0
66724 -175 15 0
66724 175 -6 -15 0
66724 -176 6 0
66724 -176 16 0
66724 176 -6 -16 0
66724 -177 6 0
66724 -177 17 0
66724 177 -6 -17 0
66724 -178 6 0
66724 -178 18 0
66724 178 -6 -18 0
66724 -179 6 0
66724 -179 19 0
66724 179 -6 -19 0
66724 -180 6 0
66724 -180 20 0
66724 180 -6 -20 0
66724 -181 6 0
66724 -181 21 0
66724 181 -6 -21 0
66724 -182 6 0
66724 -182 22 0
66724 182 -6 -22 0
66724 -183 6 0
66724 -183 23 0
66724 183 -6 -23 0
66724 -184 6 0
66724 -184 24 0
66724 184 -6 -24 0
66724 -185 6 0
66724 -185 25 0
66724 185 -6 -25 0
66724 -186 6 0
66724 -186 26 0
66724 186 -6 -26 0
66724 -187 6 0
66724 -187 27 0
66724 187 -6 -27 0
66724 -188 6 0
66724 -188 28 0
66724 188 -6 -28 0
66724 -189 6 0
66724 -189 29 0
66724 189 -6 -29 0
66724 -190 6 0
66724 -190 30 0
66724 190 -6 -30 0
66724 -191 7 0
66724 -191 8 0
66724 191 -7 -8 0
66724 -192 7 0
66724 -192 9 0
66724 192 -7 -9 0
66724 -193 7 0
66724 -193 10 0
66724 193 -7 -10 0
66724 -194 7 0
66724 -194 11 0
66724 194 -7 -11 0
66724 -195 7 0
66724 -195 12 0
66724 195 -7 -12 0
66724 -196 7 0
66724 -196 13 0
66724 196 -7 -13 0
66724 -197 7 0
66724 -197 14 0
66724 197 -7 -14 0
66724 -198 7 0
66724 -198 15 0
66724 198 -7 -15 0
66724 -199 7 0
66724 -199 16 0
66724 199 -7 -16 0
66724 -200 7 0
66724 -200 17 0
66724 200 -7 -17 0
66724 -201 7 0
66724 -201 18 0
66724 201 -7 -18 0
66724 -202 7 0
66724 -202 19 0
66724 202 -7 -19 0
66724 -203 7 0
66724 -203 20 0
66724 203 -7 -20 0
66724 -204 7 0
66724 -204 21 0
66724 204 -7 -21 0
66724 -205 7 0
66724 -205 22 0
66724 205 -7 -22 0
66724 -206 7 0
66724 -206 23 0
66724 206 -7 -23 0
66724 -207 7 0
66724 -207 24 0
66724 207 -7 -24 0
66724 -208 7 0
66724 -208 25 0
66724 208 -7 -25 0
66724 -209 7 0
66724 -209 26 0
66724 209 -7 -26 0
66724 -210 7 0
66724 -210 27 0
66724 210 -7 -27 0
66724 -211 7 0
66724 -211 28 0
66724 211 -7 -28 0
66724 -212 7 0
66724 -212 29 0
66724 212 -7 -29 0
66724 -213 7 0
66724 -213 30 0
66724 213 -7 -30 0
66724 -214 8 0
66724 -214 9 0
66724 214 -8 -9 0
66724 -215 8 0
66724 -215 10 0
66724 215 -8 -10 0
66724 -216 8 0
66724 -216 11 0
66724 216 -8 -11 0
66724 -217 8 0
66724 -217 12 0
66724 217 -8 -12 0
66724 -218 8 0
66724 -218 13 0
66724 218 -8 -13 0
66724 -219 8 0
66724 -219 14 0
66724 219 -8 -14 0
66724 -220 8 0
66724 -220 15 0
66724 220 -8 -15 0
66724 -221 8 0
66724 -221 16 0
66724 221 -8 -16 0
66724 -222 8 0
66724 -222 17 0
66724 222 -8 -17 0
66724 -223 8 0
66724 -223 18 0
66724 223 -8 -18 0
66724 -224 8 0
66724 -224 19 0
66724 224 -8 -19 0
66724 -225 8 0
66724 -225 20 0
66724 225 -8 -20 0
66724 -226 8 0
66724 -226 21 0
66724 226 -8 -21 0
66724 -227 8 0
66724 -227 22 0
66724 227 -8 -22 0
66724 -228 8 0
66724 -228 23 0
66724 228 -8 -23 0
66724 -229 8 0
66724 -229 24 0
66724 229 -8 -24 0
66724 -230 8 0
66724 -230 25 0
66724 230 -8 -25 0
66724 -231 8 0
66724 -231 26 0
66724 231 -8 -26 0
66724 -232 8 0
66724 -232 27 0
66724 232 -8 -27 0
66724 -233 8 0
66724 -233 28 0
66724 233 -8 -28 0
66724 -234 8 0
66724 -234 29 0
66724 234 -8 -29 0
66724 -235 8 0
66724 -235 30 0
66724 235 -8 -30 0
66724 -236 9 0
66724 -236 10 0
66724 236 -9 -10 0
66724 -237 9 0
66724 -237 11 0
66724 237 -9 -11 0
66724 -238 9 0
66724 -238 12 0
66724 238 -9 -12 0
66724 -239 9 0
66724 -239 13 0
66724 239 -9 -13 0
66724 -240 9 0
66724 -240 14 0
66724 240 -9 -14 0
66724 -241 9 0
66724 -241 15 0
66724 241 -9 -15 0
66724 -242 9 0
66724 -242 16 0
66724 242 -9 -16 0
66724 -243 9 0
66724 -243 17 0
66724 243 -9 -17 0
66724 -244 9 0
66724 -244 18 0
66724 244 -9 -18 0
66724 -245 9 0
66724 -245 19 0
66724 245 -9 -19 0
66724 -246 9 0
66724 -246 20 0
66724 246 -9 -20 0
66724 -247 9 0
66724 -247 21 0
66724 247 -9 -21 0
66724 -248 9 0
66724 -248 22 0
66724 248 -9 -22 0
66724 -249 9 0
66724 -249 23 0
66724 249 -9 -23 0
66724 -250 9 0
66724 -250 24 0
66724 250 -9 -24 0
66724 -251 9 0
66724 -251 25 0
66724 251 -9 -25 0
66724 -252 9 0
66724 -252 26 0
66724 252 -9 -26 0
66724 -253 9 0
66724 -253 27 0
66724 253 -9 -27 0
66724 -254 9 0
66724 -254 28 0
66724 254 -9 -28 0
66724 -255 9 0
66724 -255 29 0
66724 255 -9 -29 0
66724 -256 9 0
66724 -256 30 0
66724 256 -9 -30 0
66724 -257 10 0
66724 -257 11 0
66724 257 -10 -11 0
66724 -258 10 0
66724 -258 12 0
66724 258 -10 -12 0
66724 -259 10 0
66724 -259 13 0
66724 259 -10 -13 0
66724 -260 10 0
66724 -260 14 0
66724 260 -10 -14 0
66724 -261 10 0
66724 -261 15 0
66724 261 -10 -15 0
66724 -262 10 0
66724 -262 16 0
66724 262 -10 -16 0
66724 -263 10 0
66724 -263 17 0
66724 263 -10 -17 0
66724 -264 10 0
66724 -264 18 0
66724 264 -10 -18 0
66724 -265 10 0
66724 -265 19 0
66724 265 -10 -19 0
66724 -266 10 0
66724 -266 20 0
66724 266 -10 -20 0
66724 -267 10 0
66724 -267 21 0
66724 267 -10 -21 0
66724 -268 10 0
66724 -268 22 0
66724 268 -10 -22 0
66724 -269 10 0
66724 -269 23 0
66724 269 -10 -23 0
66724 -270 10 0
66724 -270 24 0
66724 270 -10 -24 0
66724 -271 10 0
66724 -271 25 0
66724 271 -10 -25 0
66724 -272 10 0
66724 -272 26 0
66724 272 -10 -26 0
66724 -273 10 0
66724 -273 27 0
66724 273 -10 -27 0
66724 -274 10 0
66724 -274 28 0
66724 274 -10 -28 0
66724 -275 10 0
66724 -275 29 0
66724 275 -10 -29 0
66724 -276 10 0
66724 -276 30 0
66724 276 -10 -30 0
66724 -277 11 0
66724 -277 12 0
66724 277 -11 -12 0
66724 -278 11 0
66724 -278 13 0
66724 278 -11 -13 0
66724 -279 11 0
66724 -279 14 0
66724 279 -11 -14 0
66724 -280 11 0
66724 -280 15 0
66724 280 -11 -15 0
66724 -281 11 0
66724 -281 16 0
66724 281 -11 -16 0
66724 -282 11 0
66724 -282 17 0
66724 282 -11 -17 0
66724 -283 11 0
66724 -283 18 0
66724 283 -11 -18 0
66724 -284 11 0
66724 -284 19 0
66724 284 -11 -19 0
66724 -285 11 0
66724 -285 20 0
66724 285 -11 -20 0
66724 -286 11 0
66724 -286 21 0
66724 286 -11 -21 0
66724 -287 11 0
66724 -287 22 0
66724 287 -11 -22 0
66724 -288 11 0
66724 -288 23 0
66724 288 -11 -23 0
66724 -289 11 0
66724 -289 24 0
66724 289 -11 -24 0
66724 -290 11 0
66724 -290 25 0
66724 290 -11 -25 0
66724 -291 11 0
66724 -291 26 0
66724 291 -11 -26 0
66724 -292 11 0
66724 -292 27 0
66724 292 -11 -27 0
66724 -293 11 0
66724 -293 28 0
66724 293 -11 -28 0
66724 -294 11 0
66724 -294 29 0
66724 294 -11 -29 0
66724 -295 11 0
66724 -295 30 0
66724 295 -11 -30 0
66724 -296 12 0
66724 -296 13 0
66724 296 -12 -13 0
66724 -297 12 0
66724 -297 14 0
66724 297 -12 -14 0
66724 -298 12 0
66724 -298 15 0
66724 298 -12 -15 0
66724 -299 12 0
66724 -299 16 0
66724 299 -12 -16 0
66724 -300 12 0
66724 -300 17 0
66724 300 -12 -17 0
66724 -301 12 0
66724 -301 18 0
66724 301 -12 -18 0
66724 -302 12 0
66724 -302 19 0
66724 302 -12 -19 0
66724 -303 12 0
66724 -303 20 0
66724 303 -12 -20 0
66724 -304 12 0
66724 -304 21 0
66724 304 -12 -21 0
66724 -305 12 0
66724 -305 22 0
66724 305 -12 -22 0
66724 -306 12 0
66724 -306 23 0
66724 306 -12 -23 0
66724 -307 12 0
66724 -307 24 0
66724 307 -12 -24 0
66724 -308 12 0
66724 -308 25 0
66724 308 -12 -25 0
66724 -309 12 0
66724 -309 26 0
66724 309 -12 -26 0
66724 -310 12 0
66724 -310 27 0
66724 310 -12 -27 0
66724 -311 12 0
66724 -311 28 0
66724 311 -12 -28 0
66724 -312 12 0
66724 -312 29 0
66724 312 -12 -29 0
66724 -313 12 0
66724 -313 30 0
66724 313 -12 -30 0
66724 -314 13 0
66724 -314 14 0
66724 314 -13 -14 0
66724 -315 13 0
66724 -315 15 0
66724 315 -13 -15 0
66724 -316 13 0
66724 -316 16 0
66724 316 -13 -16 0
66724 -317 13 0
66724 -317 17 0
66724 317 -13 -17 0
66724 -318 13 0
66724 -318 18 0
66724 318 -13 -18 0
66724 -319 13 0
66724 -319 19 0
66724 319 -13 -19 0
66724 -320 13 0
66724 -320 20 0
66724 320 -13 -20 0
66724 -321 13 0
66724 -321 21 0
66724 321 -13 -21 0
66724 -322 13 0
66724 -322 22 0
66724 322 -13 -22 0
66724 -323 13 0
66724 -323 23 0
66724 323 -13 -23 0
66724 -324 13 0
66724 -324 24 0
66724 324 -13 -24 0
66724 -325 13 0
66724 -325 25 0
66724 325 -13 -25 0
66724 -326 13 0
66724 -326 26 0
66724 326 -13 -26 0
66724 -327 13 0
66724 -327 27 0
66724 327 -13 -27 0
66724 -328 13 0
66724 -328 28 0
66724 328 -13 -28 0
66724 -329 13 0
66724 -329 29 0
66724 329 -13 -29 0
66724 -330 13 0
66724 -330 30 0
66724 330 -13 -30 0
66724 -331 14 0
66724 -331 15 0
66724 331 -14 -15 0
66724 -332 14 0
66724 -332 16 0
66724 332 -14 -16 0
66724 -333 14 0
66724 -333 17 0
66724 333 -14 -17 0
66724 -334 14 0
66724 -334 18 0
66724 334 -14 -18 0
66724 -335 14 0
66724 -335 19 0
66724 335 -14 -19 0
66724 -336 14 0
66724 -336 20 0
66724 336 -14 -20 0
66724 -337 14 0
66724 -337 21 0
66724 337 -14 -21 0
66724 -338 14 0
66724 -338 22 0
66724 338 -14 -22 0
66724 -339 14 0
66724 -339 23 0
66724 339 -14 -23 0
66724 -340 14 0
66724 -340 24 0
66724 340 -14 -24 0
66724 -341 14 0
66724 -341 25 0
66724 341 -14 -25 0
66724 -342 14 0
66724 -342 26 0
66724 342 -14 -26 0
66724 -343 14 0
66724 -343 27 0
66724 343 -14 -27 0
66724 -344 14 0
66724 -344 28 0
66724 344 -14 -28 0
66724 -345 14 0
66724 -345 29 0
66724 345 -14 -29 0
66724 -346 14 0
66724 -346 30 0
66724 346 -14 -30 0
66724 -347 15 0
66724 -347 16 0
66724 347 -15 -16 0
66724 -348 15 0
66724 -348 17 0
66724 348 -15 -17 0
66724 -349 15 0
66724 -349 18 0
66724 349 -15 -18 0
66724 -350 15 0
66724 -350 19 0
66724 350 -15 -19 0
66724 -351 15 0
66724 -351 20 0
66724 351 -15 -20 0
66724 -352 15 0
66724 -352 21 0
66724 352 -15 -21 0
66724 -353 15 0
66724 -353 22 0
66724 353 -15 -22 0
66724 -354 15 0
66724 -354 23 0
66724 354 -15 -23 0
66724 -355 15 0
66724 -355 24 0
66724 355 -15 -24 0
66724 -356 15 0
66724 -356 25 0
66724 356 -15 -25 0
66724 -357 15 0
66724 -357 26 0
66724 357 -15 -26 0
66724 -358 15 0
66724 -358 27 0
66724 358 -15 -27 0
66724 -359 15 0
66724 -359 28 0
66724 359 -15 -28 0
66724 -360 15 0
66724 -360 29 0
66724 360 -15 -29 0
66724 -361 15 0
66724 -361 30 0
66724 361 -15 -30 0
66724 -362 16 0
66724 -362 17 0
66724 362 -16 -17 0
66724 -363 16 0
66724 -363 18 0
66724 363 -16 -18 0
66724 -364 16 0
66724 -364 19 0
66724 364 -16 -19 0
66724 -365 16 0
66724 -365 20 0
66724 365 -16 -20 0
66724 -366 16 0
66724 -366 21 0
66724 366 -16 -21 0
66724 -367 16 0
66724 -367 22 0
66724 367 -16 -22 0
66724 -368 16 0
66724 -368 23 0
66724 368 -16 -23 0
66724 -369 16 0
66724 -369 24 0
66724 369 -16 -24 0
66724 -370 16 0
66724 -370 25 0
66724 370 -16 -25 0
66724 -371 16 0
66724 -371 26 0
66724 371 -16 -26 0
66724 -372 16 0
66724 -372 27 0
66724 372 -16 -27 0
66724 -373 16 0
66724 -373 28 0
66724 373 -16 -28 0
66724 -374 16 0
66724 -374 29 0
66724 374 -16 -29 0
66724 -375 16 0
66724 -375 30 0
66724 375 -16 -30 0
66724 -376 17 0
66724 -376 18 0
66724 376 -17 -18 0
66724 -377 17 0
66724 -377 19 0
66724 377 -17 -19 0
66724 -378 17 0
66724 -378 20 0
66724 378 -17 -20 0
66724 -379 17 0
66724 -379 21 0
66724 379 -17 -21 0
66724 -380 17 0
66724 -380 22 0
66724 380 -17 -22 0
66724 -381 17 0
66724 -381 23 0
66724 381 -17 -23 0
66724 -382 17 0
66724 -382 24 0
66724 382 -17 -24 0
66724 -383 17 0
66724 -383 25 0
66724 383 -17 -25 0
66724 -384 17 0
66724 -384 26 0
66724 384 -17 -26 0
66724 -385 17 0
66724 -385 27 0
66724 385 -17 -27 0
66724 -386 17 0
66724 -386 28 0
66724 386 -17 -28 0
66724 -387 17 0
66724 -387 29 0
66724 387 -17 -29 0
66724 -388 17 0
66724 -388 30 0
66724 388 -17 -30 0
66724 -389 18 0
66724 -389 19 0
66724 389 -18 -19 0
66724 -390 18 0
66724 -390 20 0
66724 390 -18 -20 0
66724 -391 18 0
66724 -391 21 0
66724 391 -18 -21 0
66724 -392 18 0
66724 -392 22 0
66724 392 -18 -22 0
66724 -393 18 0
66724 -393 23 0
66724 393 -18 -23 0
66724 -394 18 0
66724 -394 24 0
66724 394 -18 -24 0
66724 -395 18 0
66724 -395 25 0
66724 395 -18 -25 0
66724 -396 18 0
66724 -396 26 0
66724 396 -18 -26 0
66724 -397 18 0
66724 -397 27 0
66724 397 -18 -27 0
66724 -398 18 0
66724 -398 28 0
66724 398 -18 -28 0
66724 -399 18 0
66724 -399 29 0
66724 399 -18 -29 0
66724 -400 18 0
66724 -400 30 0
66724 400 -18 -30 0
66724 -401 19 0
66724 -401 20 0
66724 401 -19 -20 0
66724 -402 19 0
66724 -402 21 0
66724 402 -19 -21 0
66724 -403 19 0
66724 -403 22 0
66724 403 -19 -22 0
66724 -404 19 0
66724 -404 23 0
66724 404 -19 -23 0
66724 -405 19 0
66724 -405 24 0
66724 405 -19 -24 0
66724 -406 19 0
66724 -406 25 0
66724 406 -19 -25 0
66724 -407 19 0
66724 -407 26 0
66724 407 -19 -26 0
66724 -408 19 0
66724 -408 27 0
66724 408 -19 -27 0
66724 -409 19 0
66724 -409 28 0
66724 409 -19 -28 0
66724 -410 19 0
66724 -410 29 0
66724 410 -19 -29 0
66724 -411 19 0
66724 -411 30 0
66724 411 -19 -30 0
66724 -412 20 0
66724 -412 21 0
66724 412 -20 -21 0
66724 -413 20 0
66724 -413 22 0
66724 413 -20 -22 0
66724 -414 20 0
66724 -414 23 0
66724 414 -20 -23 0
66724 -415 20 0
66724 -415 24 0
66724 415 -20 -24 0
66724 -416 20 0
66724 -416 25 0
66724 416 -20 -25 0
66724 -417 20 0
66724 -417 26 0
66724 417 -20 -26 0
66724 -418 20 0
66724 -418 27 0
66724 418 -20 -27 0
66724 -419 20 0
66724 -419 28 0
66724 419 -20 -28 0
66724 -420 20 0
66724 -420 29 0
66724 420 -20 -29 0
66724 -421 20 0
66724 -421 30 0
66724 421 -20 -30 0
66724 -422 21 0
66724 -422 22 0
66724 422 -21 -22 0
66724 -423 21 0
66724 -423 23 0
66724 423 -21 -23 0
66724 -424 21 0
66724 -424 24 0
66724 424 -21 -24 0
66724 -425 21 0
66724 -425 25 0
66724 425 -21 -25 0
66724 -426 21 0
66724 -426 26 0
66724 426 -21 -26 0
66724 -427 21 0
66724 -427 27 0
66724 427 -21 -27 0
66724 -428 21 0
66724 -428 28 0
66724 428 -21 -28 0
66724 -429 21 0
66724 -429 29 0
66724 429 -21 -29 0
66724 -430 21 0
66724 -430 30 0
66724 430 -21 -30 0
66724 -431 22 0
66724 -431 23 0
66724 431 -22 -23 0
66724 -432 22 0
66724 -432 24 0
66724 432 -22 -24 0
66724 -433 22 0
66724 -433 25 0
66724 433 -22 -25 0
66724 -434 22 0
66724 -434 26 0
66724 434 -22 -26 0
66724 -435 22 0
66724 -435 27 0
66724 435 -22 -27 0
66724 -436 22 0
66724 -436 28 0
66724 436 -22 -28 0
66724 -437 22 0
66724 -437 29 0
66724 437 -22 -29 0
66724 -438 22 0
66724 -438 30 0
66724 438 -22 -30 0
66724 -439 23 0
66724 -439 24 0
66724 439 -23 -24 0
66724 -440 23 0
66724 -440 25 0
66724 440 -23 -25 0
66724 -441 23 0
66724 -441 26 0
66724 441 -23 -26 0
66724 -442 23 0
66724 -442 27 0
66724 442 -23 -27 0
66724 -443 23 0
66724 -443 28 0
66724 443 -23 -28 0
66724 -444 23 0
66724 -444 29 0
66724 444 -23 -29 0
66724 -445 23 0
66724 -445 30 0
66724 445 -23 -30 0
66724 -446 24 0
66724 -446 25 0
66724 446 -24 -25 0
66724 -447 24 0
66724 -447 26 0
66724 447 -24 -26 0
66724 -448 24 0
66724 -448 27 0
66724 448 -24 -27 0
66724 -449 24 0
66724 -449 28 0
66724 449 -24 -28 0
66724 -450 24 0
66724 -450 29 0
66724 450 -24 -29 0
66724 -451 24 0
66724 -451 30 0
66724 451 -24 -30 0
66724 -452 25 0
66724 -452 26 0
66724 452 -25 -26 0
66724 -453 25 0
66724 -453 27 0
66724 453 -25 -27 0
66724 -454 25 0
66724 -454 28 0
66724 454 -25 -28 0
66724 -455 25 0
66724 -455 29 0
66724 455 -25 -29 0
66724 -456 25 0
66724 -456 30 0
66724 456 -25 -30 0
66724 -457 26 0
66724 -457 27 0
66724 457 -26 -27 0
66724 -458 26 0
66724 -458 28 0
66724 458 -26 -28 0
66724 -459 26 0
66724 -459 29 0
66724 459 -26 -29 0
66724 -460 26 0
66724 -460 30 0
66724 460 -26 -30 0
66724 -461 27 0
66724 -461 28 0
66724 461 -27 -28 0
66724 -462 27 0
66724 -462 29 0
66724 462 -27 -29 0
66724 -463 27 0
66724 -463 30 0
66724 463 -27 -30 0
66724 -464 28 0
66724 -464 29 0
66724 464 -28 -29 0
66724 -465 28 0
66724 -465 30 0
66724 465 -28 -30 0
66724 -466 29 0
66724 -466 30 0
66724 466 -29 -30 0
40644 1 0
66714 -1 0
58666 32 0
66714 -32 0
72028 33 0
66714 -33 0
89550 34 0
66714 -34 0
58388 35 0
66714 -35 0
73138 36 0
66714 -36 0
72142 37 0
66714 -37 0
73912 38 0
66714 -38 0
76892 39 0
66714 -39 0
75242 40 0
66714 -40 0
59184 41 0
66714 -41 0
74374 42 0
66714 -42 0
67402 43 0
66714 -43 0
60404 44 0
66714 -44 0
58048 45 0
66714 -45 0
72938 46 0
66714 -46 0
65754 47 0
66714 -47 0
67870 48 0
66714 -48 0
72228 49 0
66714 -49 0
63112 50 0
66714 -50 0
66504 51 0
66714 -51 0
63284 52 0
66714 -52 0
60540 53 0
66714 -53 0
64990 54 0
66714 -54 0
66854 55 0
66714 -55 0
64168 56 0
66714 -56 0
67768 57 0
66714 -57 0
66652 58 0
66714 -58 0
69516 59 0
66714 -59 0
68576 60 0
66714 -60 0
62303 2 0
66714 -2 0
59144 61 0
66714 -61 0
66518 62 0
66714 -62 0
59480 63 0
66714 -63 0
63676 64 0
66714 -64 0
57788 65 0
66714 -65 0
47638 66 0
66714 -66 0
65532 67 0
66714 -67 0
66384 68 0
66714 -68 0
45298 69 0
66714 -69 0
70660 70 0
66714 -70 0
61604 71 0
66714 -71 0
74950 72 0
66714 -72 0
62442 73 0
66714 -73 0
67754 74 0
66714 -74 0
69962 75 0
66714 -75 0
75636 76 0
66714 -76 0
70668 77 0
66714 -77 0
63912 78 0
66714 -78 0
69386 79 0
66714 -79 0
59962 80 0
66714 -80 0
60930 81 0
66714 -81 0
69474 82 0
66714 -82 0
68760 83 0
66714 -83 0
65340 84 0
66714 -84 0
62800 85 0
66714 -85 0
66486 86 0
66714 -86 0
64068 87 0
66714 -87 0
63284 88 0
66714 -88 0
56214 3 0
66714 -3 0
76980 89 0
66714 -89 0
67462 90 0
66714 -90 0
70672 91 0
66714 -91 0
63206 92 0
66714 -92 0
63218 93 0
66714 -93 0
78768 94 0
66714 -94 0
65666 95 0
66714 -95 0
53328 96 0
66714 -96 0
76060 97 0
66714 -97 0
69746 98 0
66714 -98 0
68290 99 0
66714 -99 0
54802 100 0
66714 -100 0
76368 101 0
66714 -101 0
66882 102 0
66714 -102 0
64526 103 0
66714 -103 0
75382 104 0
66714 -104 0
67296 105 0
66714 -105 0
67408 106 0
66714 -106 0
66954 107 0
66714 -107 0
69342 108 0
66714 -108 0
68228 109 0
66714 -109 0
69496 110 0
66714 -110 0
64942 111 0
66714 -111 0
65394 112 0
66714 -112 0
66988 113 0
66714 -113 0
64414 114 0
66714 -114 0
64362 115 0
66714 -115 0
22094 4 0
66714 -4 0
67712 116 0
66714 -116 0
53468 117 0
66714 -117 0
46428 118 0
66714 -118 0
68838 119 0
66714 -119 0
60224 120 0
66714 -120 0
61204 121 0
66714 -121 0
76940 122 0
66714 -122 0
67590 123 0
66714 -123 0
61356 124 0
66714 -124 0
72834 125 0
66714 -125 0
71632 126 0
66714 -126 0
71256 127 0
66714 -127 0
65364 128 0
66714 -128 0
76146 129 0
66714 -129 0
53746 130 0
66714 -130 0
61810 131 0
66714 -131 0
62590 132 0
66714 -132 0
72072 133 0
66714 -133 0
71472 134 0
66714 -134 0
74492 135 0
66714 -135 0
74168 136 0
66714 -136 0
72562 137 0
66714 -137 0
61472 138 0
66714 -138 0
65116 139 0
66714 -139 0
61986 140 0
66714 -140 0
62206 141 0
66714 -141 0
54398 5 0
66714 -5 0
68920 142 0
66714 -142 0
57644 143 0
66714 -143 0
74708 144 0
66714 -144 0
64260 145 0
66714 -145 0
61962 146 0
66714 -146 0
63680 147 0
66714 -147 0
62884 148 0
66714 -148 0
70848 149 0
66714 -149 0
74186 150 0
66714 -150 0
58358 151 0
66714 -151 0
62636 152 0
66714 -152 0
73008 153 0
66714 -153 0
69402 154 0
66714 -154 0
73264 155 0
66714 -155 0
60666 156 0
66714 -156 0
73358 157 0
66714 -157 0
65280 158 0
66714 -158 0
54794 159 0
66714 -159 0
72532 160 0
66714 -160 0
65438 161 0
66714 -161 0
67462 162 0
66714 -162 0
67044 163 0
66714 -163 0
68098 164 0
66714 -164 0
68986 165 0
66714 -165 0
69066 166 0
66714 -166 0
36446 6 0
66714 -6 0
66792 167 0
66714 -167 0
73830 168 0
66714 -168 0
65880 169 0
66714 -169 0
73362 170 0
66714 -170 0
68878 171 0
66714 -171 0
69800 172 0
66714 -172 0
71390 173 0
66714 -173 0
73430 174 0
66714 -174 0
68886 175 0
66714 -175 0
73958 176 0
66714 -176 0
74838 177 0
66714 -177 0
61478 178 0
66714 -178 0
62042 179 0
66714 -179 0
70898 180 0
66714 -180 0
65924 181 0
66714 -181 0
62192 182 0
66714 -182 0
70244 183 0
66714 -183 0
68644 184 0
66714 -184 0
74988 185 0
66714 -185 0
66064 186 0
66714 -186 0
63044 187 0
66714 -187 0
64498 188 0
66714 -188 0
62864 189 0
66714 -189 0
61912 190 0
66714 -190 0
29883 7 0
66714 -7 0
59516 191 0
66714 -191 0
73146 192 0
66714 -192 0
62100 193 0
66714 -193 0
72438 194 0
66714 -194 0
67434 195 0
66714 -195 0
53122 196 0
66714 -196 0
66938 197 0
66714 -197 0
67782 198 0
66714 -198 0
70382 199 0
66714 -199 0
72610 200 0
66714 -200 0
67604 201 0
66714 -201 0
64412 202 0
66714 -202 0
65034 203 0
66714 -203 0
74566 204 0
66714 -204 0
63318 205 0
66714 -205 0
64138 206 0
66714 -206 0
70624 207 0
66714 -207 0
72676 208 0
66714 -208 0
69084 209 0
66714 -209 0
63224 210 0
66714 -210 0
64014 211 0
66714 -211 0
63776 212 0
66714 -212 0
63088 213 0
66714 -213 0
56567 8 0
66714 -8 0
74688 214 0
66714 -214 0
60146 215 0
66714 -215 0
57614 216 0
66714 -216 0
69262 217 0
66714 -217 0
59254 218 0
66714 -218 0
59614 219 0
66714 -219 0
77708 220 0
66714 -220 0
56552 221 0
66714 -221 0
69296 222 0
66714 -222 0
71308 223 0
66714 -223 0
62126 224 0
66714 -224 0
60566 225 0
66714 -225 0
66804 226 0
66714 -226 0
66106 227 0
66714 -227 0
67712 228 0
66714 -228 0
65604 229 0
66714 -229 0
65730 230 0
66714 -230 0
66682 231 0
66714 -231 0
62594 232 0
66714 -232 0
67462 233 0
66714 -233 0
62284 234 0
66714 -234 0
62500 235 0
66714 -235 0
52823 9 0
66714 -9 0
67952 236 0
66714 -236 0
63628 237 0
66714 -237 0
62510 238 0
66714 -238 0
77868 239 0
66714 -239 0
66056 240 0
66714 -240 0
81180 241 0
66714 -241 0
54824 242 0
66714 -242 0
63842 243 0
66714 -243 0
70564 244 0
66714 -244 0
63910 245 0
66714 -245 0
62316 246 0
66714 -246 0
62814 247 0
66714 -247 0
70484 248 0
66714 -248 0
65818 249 0
66714 -249 0
67632 250 0
66714 -250 0
64116 251 0
66714 -251 0
69990 252 0
66714 -252 0
66652 253 0
66714 -253 0
68292 254 0
66714 -254 0
67780 255 0
66714 -255 0
68576 256 0
66714 -256 0
47686 10 0
66714 -10 0
68844 257 0
66714 -257 0
65862 258 0
66714 -258 0
63864 259 0
66714 -259 0
70066 260 0
66714 -260 0
71356 261 0
66714 -261 0
65486 262 0
66714 -262 0
66408 263 0
66714 -263 0
78426 264 0
66714 -264 0
67540 265 0
66714 -265 0
67434 266 0
66714 -266 0
60592 267 0
66714 -267 0
63096 268 0
66714 -268 0
68280 269 0
66714 -269 0
55360 270 0
66714 -270 0
66006 271 0
66714 -271 0
68556 272 0
66714 -272 0
70736 273 0
66714 -273 0
61356 274 0
66714 -274 0
69214 275 0
66714 -275 0
68674 276 0
66714 -276 0
89506 11 0
66714 -11 0
70992 277 0
66714 -277 0
69802 278 0
66714 -278 0
69256 279 0
66714 -279 0
60168 280 0
66714 -280 0
55160 281 0
66714 -281 0
66512 282 0
66714 -282 0
67166 283 0
66714 -283 0
69356 284 0
66714 -284 0
62440 285 0
66714 -285 0
66062 286 0
66714 -286 0
64550 287 0
66714 -287 0
62538 288 0
66714 -288 0
70682 289 0
66714 -289 0
62704 290 0
66714 -290 0
69398 291 0
66714 -291 0
66220 292 0
66714 -292 0
68900 293 0
66714 -293 0
67780 294 0
66714 -294 0
68576 295 0
66714 -295 0
51886 12 0
66714 -12 0
69090 296 0
66714 -296 0
69972 297 0
66714 -297 0
59456 298 0
66714 -298 0
56358 299 0
66714 -299 0
75952 300 0
66714 -300 0
71256 301 0
66714 -301 0
70798 302 0
66714 -302 0
70660 303 0
66714 -303 0
70520 304 0
66714 -304 0
62386 305 0
66714 -305 0
62946 306 0
66714 -306 0
67228 307 0
66714 -307 0
63764 308 0
66714 -308 0
67602 309 0
66714 -309 0
70654 310 0
66714 -310 0
65964 311 0
66714 -311 0
70836 312 0
66714 -312 0
70928 313 0
66714 -313 0
44237 13 0
66714 -13 0
64286 314 0
66714 -314 0
69964 315 0
66714 -315 0
63120 316 0
66714 -316 0
58374 317 0
66714 -317 0
65446 318 0
66714 -318 0
60308 319 0
66714 -319 0
67584 320 0
66714 -320 0
65580 321 0
66714 -321 0
63356 322 0
66714 -322 0
74942 323 0
66714 -323 0
62520 324 0
66714 -324 0
70114 325 0
66714 -325 0
68542 326 0
66714 -326 0
65064 327 0
66714 -327 0
64174 328 0
66714 -328 0
64396 329 0
66714 -329 0
64068 330 0
66714 -330 0
49618 14 0
66714 -14 0
70090 331 0
66714 -331 0
62858 332 0
66714 -332 0
58178 333 0
66714 -333 0
63396 334 0
66714 -334 0
63188 335 0
66714 -335 0
60106 336 0
66714 -336 0
68702 337 0
66714 -337 0
72986 338 0
66714 -338 0
76472 339 0
66714 -339 0
57930 340 0
66714 -340 0
65964 341 0
66714 -341 0
68736 342 0
66714 -342 0
69138 343 0
66714 -343 0
64290 344 0
66714 -344 0
67850 345 0
66714 -345 0
67890 346 0
66714 -346 0
57518 15 0
66714 -15 0
77554 347 0
66714 -347 0
69480 348 0
66714 -348 0
66428 349 0
66714 -349 0
78522 350 0
66714 -350 0
69786 351 0
66714 -351 0
74830 352 0
66714 -352 0
66094 353 0
66714 -353 0
62316 354 0
66714 -354 0
67944 355 0
66714 -355 0
67708 356 0
66714 -356 0
64886 357 0
66714 -357 0
72226 358 0
66714 -358 0
64256 359 0
66714 -359 0
71676 360 0
66714 -360 0
70928 361 0
66714 -361 0
68898 16 0
66714 -16 0
67696 362 0
66714 -362 0
64934 363 0
66714 -363 0
57260 364 0
66714 -364 0
60426 365 0
66714 -365 0
66526 366 0
66714 -366 0
67456 367 0
66714 -367 0
64868 368 0
66714 -368 0
69680 369 0
66714 -369 0
59354 370 0
66714 -370 0
71904 371 0
66714 -371 0
67350 372 0
66714 -372 0
70464 373 0
66714 -373 0
69560 374 0
66714 -374 0
71124 375 0
66714 -375 0
59693 17 0
66714 -17 0
62120 376 0
66714 -376 0
65860 377 0
66714 -377 0
62548 378 0
66714 -378 0
64166 379 0
66714 -379 0
73514 380 0
66714 -380 0
71744 381 0
66714 -381 0
60088 382 0
66714 -382 0
60804 383 0
66714 -383 0
70460 384 0
66714 -384 0
69338 385 0
66714 -385 0
67058 386 0
66714 -386 0
67878 387 0
66714 -387 0
69262 388 0
66714 -388 0
57689 18 0
66714 -18 0
68128 389 0
66714 -389 0
70094 390 0
66714 -390 0
68202 391 0
66714 -391 0
69508 392 0
66714 -392 0
69250 393 0
66714 -393 0
70200 394 0
66714 -394 0
63994 395 0
66714 -395 0
65302 396 0
66714 -396 0
66192 397 0
66714 -397 0
71374 398 0
66714 -398 0
65864 399 0
66714 -399 0
67008 400 0
66714 -400 0
55219 19 0
66714 -19 0
62078 401 0
66714 -401 0
61958 402 0
66714 -402 0
70052 403 0
66714 -403 0
70868 404 0
66714 -404 0
69788 405 0
66714 -405 0
68516 406 0
66714 -406 0
70504 407 0
66714 -407 0
63508 408 0
66714 -408 0
67330 409 0
66714 -409 0
64624 410 0
66714 -410 0
65048 411 0
66714 -411 0
60326 20 0
66714 -20 0
61996 412 0
66714 -412 0
75470 413 0
66714 -413 0
61098 414 0
66714 -414 0
70406 415 0
66714 -415 0
67368 416 0
66714 -416 0
75146 417 0
66714 -417 0
65258 418 0
66714 -418 0
66572 419 0
66714 -419 0
66062 420 0
66714 -420 0
67498 421 0
66714 -421 0
59663 21 0
66714 -21 0
69006 422 0
66714 -422 0
68050 423 0
66714 -423 0
67218 424 0
66714 -424 0
67228 425 0
66714 -425 0
70272 426 0
66714 -426 0
64950 427 0
66714 -427 0
67578 428 0
66714 -428 0
65222 429 0
66714 -429 0
66126 430 0
66714 -430 0
63236 22 0
66714 -22 0
66146 431 0
66714 -431 0
63272 432 0
66714 -432 0
66960 433 0
66714 -433 0
62348 434 0
66714 -434 0
66462 435 0
66714 -435 0
65774 436 0
66714 -436 0
66754 437 0
66714 -437 0
65538 438 0
66714 -438 0
67571 23 0
66714 -23 0
72266 439 0
66714 -439 0
62702 440 0
66714 -440 0
68226 441 0
66714 -441 0
67744 442 0
66714 -442 0
68706 443 0
66714 -443 0
69438 444 0
66714 -444 0
70046 445 0
66714 -445 0
55808 24 0
66714 -24 0
65700 446 0
66714 -446 0
65410 447 0
66714 -447 0
72062 448 0
66714 -448 0
60952 449 0
66714 -449 0
69774 450 0
66714 -450 0
68674 451 0
66714 -451 0
75030 25 0
66714 -25 0
66734 452 0
66714 -452 0
69230 453 0
66714 -453 0
69926 454 0
66714 -454 0
69732 455 0
66714 -455 0
70732 456 0
66714 -456 0
60821 26 0
66714 -26 0
66166 457 0
66714 -457 0
67740 458 0
66714 -458 0
66052 459 0
66714 -459 0
65048 460 0
66714 -460 0
61993 27 0
66714 -27 0
69094 461 0
66714 -461 0
62250 462 0
66714 -462 0
62402 463 0
66714 -463 0
58889 28 0
66714 -28 0
67942 464 0
66714 -464 0
67106 465 0
66714 -465 0
60291 29 0
66714 -29 0
62304 466 0
66714 -466 0
58335 30 0
66714 -30 0
